language ESSENCE' 1.0
$---------------------------------------------------------------------------
$ size of the matrix
$---------------------------------------------------------------------------
letting mainRow be 10
letting mainCol be 10

letting topRows be 4
letting leftCols be 4

$---------------------------------------------------------------------------
$ pair 1: 9 by 9 present letter "P"
$---------------------------------------------------------------------------
letting leftMatrix be [
[4, 2, 0, 0],
[3, 4, 0, 0],
[2, 3, 0, 0],
[2, 1, 1, 3],
[1, 1, 1, 0],

[2, 2, 1, 0],
[1, 2, 0, 0],
[1, 2, 0, 0],
[2, 3, 0, 0],
[4, 1, 0, 0]
]

letting topMatrix be [
[4, 6, 2, 1, 0,  1, 1, 5, 4, 10],
[4, 2, 1, 1, 0,  0, 1, 1, 3, 0],
[0, 0, 1, 1, 0,  0, 0, 0, 0, 0],
[0, 0, 0, 0, 0,  0, 0, 0, 0, 0]
]
